(set-logic QF_NRA)
(set-info :source |Benchmarks generated from hycomp (https://es-static.fbk.eu/tools/hycomp/). BMC instances of non-linear hybrid automata taken from: Alessandro Cimatti, Sergio Mover, Stefano Tonetta, A quantifier-free SMT encoding of non-linear hybrid automata, FMCAD 2012 and Alessandro Cimatti, Sergio Mover, Stefano Tonetta, Quantier-free encoding of invariants for Hybrid Systems, Formal Methods in System Design. This instance solves a BMC problem of depth 3 and uses the encoding obtained with quantifier elimination using redlog encoding. Contacts: Sergio Mover (mover@fbk.eu), Stefano Tonetta (tonettas@fbk.eu), Alessandro Cimatti (cimatti@fbk.eu).|)
(set-info :smt-lib-version 2.0)
(set-info :category "industrial")
(set-info :status unsat)
;; MathSAT API call trace
;; generated on Mon Mar 19 10:45:19 2012
(declare-fun b.EVENT.0__AT3 () Bool)
(declare-fun b.counter.3__AT3 () Bool)
(declare-fun b.delta__AT2 () Real)
(declare-fun b.EVENT.0__AT0 () Bool)
(declare-fun b.EVENT.1__AT3 () Bool)
(declare-fun b.EVENT.0__AT2 () Bool)
(declare-fun b.time__AT1 () Real)
(declare-fun b.y__AT0 () Real)
(declare-fun b.y__AT2 () Real)
(declare-fun b.EVENT.1__AT2 () Bool)
(declare-fun b.counter.0__AT0 () Bool)
(declare-fun b.speed_y__AT3 () Real)
(declare-fun b.counter.2__AT0 () Bool)
(declare-fun b.counter.1__AT0 () Bool)
(declare-fun b.counter.1__AT1 () Bool)
(declare-fun b.counter.2__AT1 () Bool)
(declare-fun speed_loss__AT0 () Real)
(declare-fun b.speed_y__AT0 () Real)
(declare-fun b.speed_y__AT2 () Real)
(declare-fun b.event_is_timed__AT1 () Bool)
(declare-fun b.counter.0__AT2 () Bool)
(declare-fun b.event_is_timed__AT0 () Bool)
(declare-fun b.counter.2__AT2 () Bool)
(declare-fun b.counter.1__AT2 () Bool)
(declare-fun b.counter.3__AT2 () Bool)
(declare-fun b.counter.3__AT1 () Bool)
(declare-fun b.y__AT1 () Real)
(declare-fun b.counter.0__AT1 () Bool)
(declare-fun b.counter.3__AT0 () Bool)
(declare-fun b.event_is_timed__AT3 () Bool)
(declare-fun b.delta__AT1 () Real)
(declare-fun b.EVENT.0__AT1 () Bool)
(declare-fun b.event_is_timed__AT2 () Bool)
(declare-fun b.EVENT.1__AT0 () Bool)
(declare-fun b.delta__AT0 () Real)
(declare-fun b.y__AT3 () Real)
(declare-fun b.EVENT.1__AT1 () Bool)
(declare-fun b.counter.0__AT3 () Bool)
(declare-fun b.time__AT3 () Real)
(declare-fun b.speed_y__AT1 () Real)
(declare-fun b.counter.1__AT3 () Bool)
(declare-fun b.time__AT0 () Real)
(declare-fun b.delta__AT3 () Real)
(declare-fun b.time__AT2 () Real)
(declare-fun b.counter.2__AT3 () Bool)
(assert (let ((.def_640 (* 49.0 b.delta__AT3)))
(let ((.def_641 (* b.delta__AT3 .def_640)))
(let ((.def_642 (* (- 1.0) .def_641)))
(let ((.def_638 (* 10.0 b.speed_y__AT3)))
(let ((.def_639 (* b.delta__AT3 .def_638)))
(let ((.def_643 (+ .def_639 .def_642)))
(let ((.def_644 (* 10.0 b.y__AT3)))
(let ((.def_646 (+ .def_644 .def_643)))
(let ((.def_647 (<= 0.0 .def_646)))
(let ((.def_674 (not .def_647)))
(let ((.def_658 (* (- 49.0) b.delta__AT3)))
(let ((.def_649 (* 5.0 b.speed_y__AT3)))
(let ((.def_659 (+ .def_649 .def_658)))
(let ((.def_660 (<= 0.0 .def_659)))
(let ((.def_675 (and .def_660 .def_674)))
(let ((.def_670 (<= b.speed_y__AT3 0.0 )))
(let ((.def_625 (<= 0.0 b.y__AT3)))
(let ((.def_673 (or .def_625 .def_670)))
(let ((.def_676 (or .def_673 .def_675)))
(let ((.def_669 (<= b.y__AT3 0.0 )))
(let ((.def_671 (and .def_669 .def_670)))
(let ((.def_664 (<= .def_659 0.0 )))
(let ((.def_665 (not .def_664)))
(let ((.def_662 (= .def_646 0.0 )))
(let ((.def_663 (not .def_662)))
(let ((.def_666 (or .def_663 .def_665)))
(let ((.def_661 (or .def_647 .def_660)))
(let ((.def_667 (and .def_661 .def_666)))
(let ((.def_650 (* b.speed_y__AT3 .def_649)))
(let ((.def_651 (* 98.0 b.y__AT3)))
(let ((.def_653 (+ .def_651 .def_650)))
(let ((.def_656 (<= .def_653 0.0 )))
(let ((.def_657 (not .def_656)))
(let ((.def_668 (or .def_657 .def_667)))
(let ((.def_672 (or .def_668 .def_671)))
(let ((.def_677 (and .def_672 .def_676)))
(let ((.def_654 (<= 0.0 .def_653)))
(let ((.def_655 (not .def_654)))
(let ((.def_678 (or .def_655 .def_677)))
(let ((.def_636 (<= 0.0 b.delta__AT3)))
(let ((.def_637 (not .def_636)))
(let ((.def_648 (or .def_637 .def_647)))
(let ((.def_679 (and .def_648 .def_678)))
(let ((.def_622 (not b.EVENT.0__AT3)))
(let ((.def_620 (not b.EVENT.1__AT3)))
(let ((.def_633 (and .def_620 .def_622)))
(let ((.def_634 (not .def_633)))
(let ((.def_680 (or .def_634 .def_679)))
(let ((.def_330 (not b.counter.0__AT2)))
(let ((.def_318 (not b.counter.1__AT2)))
(let ((.def_629 (and .def_318 .def_330)))
(let ((.def_325 (not b.counter.2__AT2)))
(let ((.def_630 (and .def_325 .def_629)))
(let ((.def_55 (<= speed_loss__AT0 (/ 1 2))))
(let ((.def_52 (<= (/ 1 10) speed_loss__AT0)))
(let ((.def_56 (and .def_52 .def_55)))
(let ((.def_626 (and .def_56 .def_625)))
(let ((.def_623 (or .def_620 .def_622)))
(let ((.def_6 (not b.counter.0__AT3)))
(let ((.def_4 (not b.counter.1__AT3)))
(let ((.def_613 (or .def_4 .def_6)))
(let ((.def_617 (or b.counter.3__AT3 .def_613)))
(let ((.def_614 (or b.counter.2__AT3 .def_613)))
(let ((.def_9 (not b.counter.2__AT3)))
(let ((.def_612 (or .def_6 .def_9)))
(let ((.def_615 (and .def_612 .def_614)))
(let ((.def_524 (not b.counter.3__AT3)))
(let ((.def_616 (or .def_524 .def_615)))
(let ((.def_618 (and .def_616 .def_617)))
(let ((.def_624 (and .def_618 .def_623)))
(let ((.def_627 (and .def_624 .def_626)))
(let ((.def_452 (<= 0.0 b.delta__AT2)))
(let ((.def_438 (not b.EVENT.0__AT2)))
(let ((.def_436 (not b.EVENT.1__AT2)))
(let ((.def_449 (and .def_436 .def_438)))
(let ((.def_450 (not .def_449)))
(let ((.def_608 (or .def_450 .def_452)))
(let ((.def_609 (or b.EVENT.1__AT2 .def_608)))
(let ((.def_546 (= b.counter.0__AT3 b.counter.0__AT2)))
(let ((.def_544 (= b.counter.1__AT3 b.counter.1__AT2)))
(let ((.def_542 (= b.counter.2__AT3 b.counter.2__AT2)))
(let ((.def_541 (= b.counter.3__AT2 b.counter.3__AT3)))
(let ((.def_543 (and .def_541 .def_542)))
(let ((.def_545 (and .def_543 .def_544)))
(let ((.def_547 (and .def_545 .def_546)))
(let ((.def_605 (or .def_450 .def_547)))
(let ((.def_606 (or b.EVENT.1__AT2 .def_605)))
(let ((.def_597 (* (- 5.0) b.speed_y__AT3)))
(let ((.def_474 (* (- 49.0) b.delta__AT2)))
(let ((.def_598 (+ .def_474 .def_597)))
(let ((.def_465 (* 5.0 b.speed_y__AT2)))
(let ((.def_599 (+ .def_465 .def_598)))
(let ((.def_600 (= .def_599 0.0 )))
(let ((.def_588 (* b.speed_y__AT2 b.delta__AT2)))
(let ((.def_589 (* 10.0 .def_588)))
(let ((.def_586 (* b.delta__AT2 b.delta__AT2)))
(let ((.def_587 (* (- 49.0) .def_586)))
(let ((.def_590 (+ .def_587 .def_589)))
(let ((.def_591 (* (- 10.0) b.y__AT3)))
(let ((.def_594 (+ .def_591 .def_590)))
(let ((.def_460 (* 10.0 b.y__AT2)))
(let ((.def_595 (+ .def_460 .def_594)))
(let ((.def_596 (= .def_595 0.0 )))
(let ((.def_601 (and .def_596 .def_600)))
(let ((.def_602 (or .def_450 .def_601)))
(let ((.def_552 (= b.y__AT2 b.y__AT3)))
(let ((.def_540 (= b.speed_y__AT2 b.speed_y__AT3)))
(let ((.def_583 (and .def_540 .def_552)))
(let ((.def_580 (= b.delta__AT2 0.0 )))
(let ((.def_581 (and .def_449 .def_580)))
(let ((.def_582 (not .def_581)))
(let ((.def_584 (or .def_582 .def_583)))
(let ((.def_585 (or b.EVENT.1__AT2 .def_584)))
(let ((.def_603 (and .def_585 .def_602)))
(let ((.def_562 (= b.time__AT2 b.time__AT3)))
(let ((.def_574 (and .def_552 .def_562)))
(let ((.def_575 (and .def_540 .def_574)))
(let ((.def_576 (and .def_547 .def_575)))
(let ((.def_577 (or .def_436 .def_576)))
(let ((.def_565 (* (- 1.0) b.time__AT3)))
(let ((.def_568 (+ b.delta__AT2 .def_565)))
(let ((.def_569 (+ b.time__AT2 .def_568)))
(let ((.def_570 (= .def_569 0.0 )))
(let ((.def_571 (or .def_450 .def_570)))
(let ((.def_572 (or b.EVENT.1__AT2 .def_571)))
(let ((.def_563 (or .def_449 .def_562)))
(let ((.def_564 (or b.EVENT.1__AT2 .def_563)))
(let ((.def_573 (and .def_564 .def_572)))
(let ((.def_578 (and .def_573 .def_577)))
(let ((.def_558 (= .def_450 b.event_is_timed__AT3)))
(let ((.def_556 (= b.event_is_timed__AT2 .def_449)))
(let ((.def_559 (and .def_556 .def_558)))
(let ((.def_548 (and .def_540 .def_547)))
(let ((.def_499 (<= 0.0 b.speed_y__AT2)))
(let ((.def_500 (not .def_499)))
(let ((.def_498 (= b.y__AT2 0.0 )))
(let ((.def_501 (and .def_498 .def_500)))
(let ((.def_549 (or .def_501 .def_548)))
(let ((.def_515 (or .def_6 b.counter.0__AT2)))
(let ((.def_514 (or b.counter.0__AT3 .def_330)))
(let ((.def_516 (and .def_514 .def_515)))
(let ((.def_517 (and .def_4 .def_516)))
(let ((.def_518 (or b.counter.1__AT2 .def_517)))
(let ((.def_513 (or b.counter.1__AT3 .def_318)))
(let ((.def_519 (and .def_513 .def_518)))
(let ((.def_532 (and .def_9 .def_519)))
(let ((.def_533 (or b.counter.2__AT2 .def_532)))
(let ((.def_527 (and .def_4 .def_330)))
(let ((.def_528 (or b.counter.1__AT2 .def_527)))
(let ((.def_529 (and .def_513 .def_528)))
(let ((.def_530 (and b.counter.2__AT3 .def_529)))
(let ((.def_531 (or .def_325 .def_530)))
(let ((.def_534 (and .def_531 .def_533)))
(let ((.def_535 (and b.counter.3__AT3 .def_534)))
(let ((.def_536 (or b.counter.3__AT2 .def_535)))
(let ((.def_520 (and b.counter.2__AT3 .def_519)))
(let ((.def_521 (or b.counter.2__AT2 .def_520)))
(let ((.def_509 (or b.counter.1__AT3 b.counter.1__AT2)))
(let ((.def_507 (and .def_4 b.counter.0__AT3)))
(let ((.def_508 (or .def_318 .def_507)))
(let ((.def_510 (and .def_508 .def_509)))
(let ((.def_511 (and .def_9 .def_510)))
(let ((.def_512 (or .def_325 .def_511)))
(let ((.def_522 (and .def_512 .def_521)))
(let ((.def_525 (and .def_522 .def_524)))
(let ((.def_340 (not b.counter.3__AT2)))
(let ((.def_526 (or .def_340 .def_525)))
(let ((.def_537 (and .def_526 .def_536)))
(let ((.def_503 (* (- 1.0) b.speed_y__AT2)))
(let ((.def_122 (* (- 1.0) speed_loss__AT0)))
(let ((.def_123 (+ 1.0 .def_122)))
(let ((.def_504 (* .def_123 .def_503)))
(let ((.def_506 (= .def_504 b.speed_y__AT3)))
(let ((.def_538 (and .def_506 .def_537)))
(let ((.def_502 (not .def_501)))
(let ((.def_539 (or .def_502 .def_538)))
(let ((.def_550 (and .def_539 .def_549)))
(let ((.def_553 (and .def_550 .def_552)))
(let ((.def_554 (or .def_449 .def_553)))
(let ((.def_555 (or b.EVENT.1__AT2 .def_554)))
(let ((.def_560 (and .def_555 .def_559)))
(let ((.def_579 (and .def_560 .def_578)))
(let ((.def_604 (and .def_579 .def_603)))
(let ((.def_607 (and .def_604 .def_606)))
(let ((.def_610 (and .def_607 .def_609)))
(let ((.def_611 (and .def_436 .def_610)))
(let ((.def_628 (and .def_611 .def_627)))
(let ((.def_631 (and .def_628 .def_630)))
(let ((.def_456 (* 49.0 b.delta__AT2)))
(let ((.def_457 (* b.delta__AT2 .def_456)))
(let ((.def_458 (* (- 1.0) .def_457)))
(let ((.def_454 (* 10.0 b.speed_y__AT2)))
(let ((.def_455 (* b.delta__AT2 .def_454)))
(let ((.def_459 (+ .def_455 .def_458)))
(let ((.def_462 (+ .def_460 .def_459)))
(let ((.def_463 (<= 0.0 .def_462)))
(let ((.def_490 (not .def_463)))
(let ((.def_475 (+ .def_465 .def_474)))
(let ((.def_476 (<= 0.0 .def_475)))
(let ((.def_491 (and .def_476 .def_490)))
(let ((.def_486 (<= b.speed_y__AT2 0.0 )))
(let ((.def_441 (<= 0.0 b.y__AT2)))
(let ((.def_489 (or .def_441 .def_486)))
(let ((.def_492 (or .def_489 .def_491)))
(let ((.def_485 (<= b.y__AT2 0.0 )))
(let ((.def_487 (and .def_485 .def_486)))
(let ((.def_480 (<= .def_475 0.0 )))
(let ((.def_481 (not .def_480)))
(let ((.def_478 (= .def_462 0.0 )))
(let ((.def_479 (not .def_478)))
(let ((.def_482 (or .def_479 .def_481)))
(let ((.def_477 (or .def_463 .def_476)))
(let ((.def_483 (and .def_477 .def_482)))
(let ((.def_466 (* b.speed_y__AT2 .def_465)))
(let ((.def_467 (* 98.0 b.y__AT2)))
(let ((.def_469 (+ .def_467 .def_466)))
(let ((.def_472 (<= .def_469 0.0 )))
(let ((.def_473 (not .def_472)))
(let ((.def_484 (or .def_473 .def_483)))
(let ((.def_488 (or .def_484 .def_487)))
(let ((.def_493 (and .def_488 .def_492)))
(let ((.def_470 (<= 0.0 .def_469)))
(let ((.def_471 (not .def_470)))
(let ((.def_494 (or .def_471 .def_493)))
(let ((.def_453 (not .def_452)))
(let ((.def_464 (or .def_453 .def_463)))
(let ((.def_495 (and .def_464 .def_494)))
(let ((.def_496 (or .def_450 .def_495)))
(let ((.def_140 (not b.counter.0__AT1)))
(let ((.def_128 (not b.counter.1__AT1)))
(let ((.def_445 (and .def_128 .def_140)))
(let ((.def_135 (not b.counter.2__AT1)))
(let ((.def_446 (and .def_135 .def_445)))
(let ((.def_442 (and .def_56 .def_441)))
(let ((.def_439 (or .def_436 .def_438)))
(let ((.def_429 (or .def_318 .def_330)))
(let ((.def_433 (or b.counter.3__AT2 .def_429)))
(let ((.def_430 (or b.counter.2__AT2 .def_429)))
(let ((.def_428 (or .def_325 .def_330)))
(let ((.def_431 (and .def_428 .def_430)))
(let ((.def_432 (or .def_340 .def_431)))
(let ((.def_434 (and .def_432 .def_433)))
(let ((.def_440 (and .def_434 .def_439)))
(let ((.def_443 (and .def_440 .def_442)))
(let ((.def_262 (<= 0.0 b.delta__AT1)))
(let ((.def_250 (not b.EVENT.0__AT1)))
(let ((.def_248 (not b.EVENT.1__AT1)))
(let ((.def_259 (and .def_248 .def_250)))
(let ((.def_260 (not .def_259)))
(let ((.def_424 (or .def_260 .def_262)))
(let ((.def_425 (or b.EVENT.1__AT1 .def_424)))
(let ((.def_362 (= b.counter.0__AT1 b.counter.0__AT2)))
(let ((.def_360 (= b.counter.1__AT1 b.counter.1__AT2)))
(let ((.def_358 (= b.counter.2__AT1 b.counter.2__AT2)))
(let ((.def_357 (= b.counter.3__AT1 b.counter.3__AT2)))
(let ((.def_359 (and .def_357 .def_358)))
(let ((.def_361 (and .def_359 .def_360)))
(let ((.def_363 (and .def_361 .def_362)))
(let ((.def_421 (or .def_260 .def_363)))
(let ((.def_422 (or b.EVENT.1__AT1 .def_421)))
(let ((.def_413 (* (- 5.0) b.speed_y__AT2)))
(let ((.def_284 (* (- 49.0) b.delta__AT1)))
(let ((.def_414 (+ .def_284 .def_413)))
(let ((.def_275 (* 5.0 b.speed_y__AT1)))
(let ((.def_415 (+ .def_275 .def_414)))
(let ((.def_416 (= .def_415 0.0 )))
(let ((.def_404 (* b.speed_y__AT1 b.delta__AT1)))
(let ((.def_405 (* 10.0 .def_404)))
(let ((.def_402 (* b.delta__AT1 b.delta__AT1)))
(let ((.def_403 (* (- 49.0) .def_402)))
(let ((.def_406 (+ .def_403 .def_405)))
(let ((.def_407 (* (- 10.0) b.y__AT2)))
(let ((.def_410 (+ .def_407 .def_406)))
(let ((.def_270 (* 10.0 b.y__AT1)))
(let ((.def_411 (+ .def_270 .def_410)))
(let ((.def_412 (= .def_411 0.0 )))
(let ((.def_417 (and .def_412 .def_416)))
(let ((.def_418 (or .def_260 .def_417)))
(let ((.def_368 (= b.y__AT1 b.y__AT2)))
(let ((.def_356 (= b.speed_y__AT1 b.speed_y__AT2)))
(let ((.def_399 (and .def_356 .def_368)))
(let ((.def_396 (= b.delta__AT1 0.0 )))
(let ((.def_397 (and .def_259 .def_396)))
(let ((.def_398 (not .def_397)))
(let ((.def_400 (or .def_398 .def_399)))
(let ((.def_401 (or b.EVENT.1__AT1 .def_400)))
(let ((.def_419 (and .def_401 .def_418)))
(let ((.def_378 (= b.time__AT1 b.time__AT2)))
(let ((.def_390 (and .def_368 .def_378)))
(let ((.def_391 (and .def_356 .def_390)))
(let ((.def_392 (and .def_363 .def_391)))
(let ((.def_393 (or .def_248 .def_392)))
(let ((.def_381 (* (- 1.0) b.time__AT2)))
(let ((.def_384 (+ b.delta__AT1 .def_381)))
(let ((.def_385 (+ b.time__AT1 .def_384)))
(let ((.def_386 (= .def_385 0.0 )))
(let ((.def_387 (or .def_260 .def_386)))
(let ((.def_388 (or b.EVENT.1__AT1 .def_387)))
(let ((.def_379 (or .def_259 .def_378)))
(let ((.def_380 (or b.EVENT.1__AT1 .def_379)))
(let ((.def_389 (and .def_380 .def_388)))
(let ((.def_394 (and .def_389 .def_393)))
(let ((.def_374 (= .def_260 b.event_is_timed__AT2)))
(let ((.def_372 (= b.event_is_timed__AT1 .def_259)))
(let ((.def_375 (and .def_372 .def_374)))
(let ((.def_364 (and .def_356 .def_363)))
(let ((.def_309 (<= 0.0 b.speed_y__AT1)))
(let ((.def_310 (not .def_309)))
(let ((.def_308 (= b.y__AT1 0.0 )))
(let ((.def_311 (and .def_308 .def_310)))
(let ((.def_365 (or .def_311 .def_364)))
(let ((.def_331 (or b.counter.0__AT1 .def_330)))
(let ((.def_329 (or .def_140 b.counter.0__AT2)))
(let ((.def_332 (and .def_329 .def_331)))
(let ((.def_333 (and .def_318 .def_332)))
(let ((.def_334 (or b.counter.1__AT1 .def_333)))
(let ((.def_328 (or .def_128 b.counter.1__AT2)))
(let ((.def_335 (and .def_328 .def_334)))
(let ((.def_348 (and .def_325 .def_335)))
(let ((.def_349 (or b.counter.2__AT1 .def_348)))
(let ((.def_343 (and .def_140 .def_318)))
(let ((.def_344 (or b.counter.1__AT1 .def_343)))
(let ((.def_345 (and .def_328 .def_344)))
(let ((.def_346 (and b.counter.2__AT2 .def_345)))
(let ((.def_347 (or .def_135 .def_346)))
(let ((.def_350 (and .def_347 .def_349)))
(let ((.def_351 (and b.counter.3__AT2 .def_350)))
(let ((.def_352 (or b.counter.3__AT1 .def_351)))
(let ((.def_336 (and b.counter.2__AT2 .def_335)))
(let ((.def_337 (or b.counter.2__AT1 .def_336)))
(let ((.def_322 (or b.counter.1__AT1 b.counter.1__AT2)))
(let ((.def_320 (and .def_318 b.counter.0__AT2)))
(let ((.def_321 (or .def_128 .def_320)))
(let ((.def_323 (and .def_321 .def_322)))
(let ((.def_326 (and .def_323 .def_325)))
(let ((.def_327 (or .def_135 .def_326)))
(let ((.def_338 (and .def_327 .def_337)))
(let ((.def_341 (and .def_338 .def_340)))
(let ((.def_150 (not b.counter.3__AT1)))
(let ((.def_342 (or .def_150 .def_341)))
(let ((.def_353 (and .def_342 .def_352)))
(let ((.def_313 (* (- 1.0) b.speed_y__AT1)))
(let ((.def_314 (* .def_123 .def_313)))
(let ((.def_316 (= .def_314 b.speed_y__AT2)))
(let ((.def_354 (and .def_316 .def_353)))
(let ((.def_312 (not .def_311)))
(let ((.def_355 (or .def_312 .def_354)))
(let ((.def_366 (and .def_355 .def_365)))
(let ((.def_369 (and .def_366 .def_368)))
(let ((.def_370 (or .def_259 .def_369)))
(let ((.def_371 (or b.EVENT.1__AT1 .def_370)))
(let ((.def_376 (and .def_371 .def_375)))
(let ((.def_395 (and .def_376 .def_394)))
(let ((.def_420 (and .def_395 .def_419)))
(let ((.def_423 (and .def_420 .def_422)))
(let ((.def_426 (and .def_423 .def_425)))
(let ((.def_427 (and .def_248 .def_426)))
(let ((.def_444 (and .def_427 .def_443)))
(let ((.def_447 (and .def_444 .def_446)))
(let ((.def_266 (* 49.0 b.delta__AT1)))
(let ((.def_267 (* b.delta__AT1 .def_266)))
(let ((.def_268 (* (- 1.0) .def_267)))
(let ((.def_264 (* 10.0 b.speed_y__AT1)))
(let ((.def_265 (* b.delta__AT1 .def_264)))
(let ((.def_269 (+ .def_265 .def_268)))
(let ((.def_272 (+ .def_270 .def_269)))
(let ((.def_273 (<= 0.0 .def_272)))
(let ((.def_300 (not .def_273)))
(let ((.def_285 (+ .def_275 .def_284)))
(let ((.def_286 (<= 0.0 .def_285)))
(let ((.def_301 (and .def_286 .def_300)))
(let ((.def_296 (<= b.speed_y__AT1 0.0 )))
(let ((.def_253 (<= 0.0 b.y__AT1)))
(let ((.def_299 (or .def_253 .def_296)))
(let ((.def_302 (or .def_299 .def_301)))
(let ((.def_295 (<= b.y__AT1 0.0 )))
(let ((.def_297 (and .def_295 .def_296)))
(let ((.def_290 (<= .def_285 0.0 )))
(let ((.def_291 (not .def_290)))
(let ((.def_288 (= .def_272 0.0 )))
(let ((.def_289 (not .def_288)))
(let ((.def_292 (or .def_289 .def_291)))
(let ((.def_287 (or .def_273 .def_286)))
(let ((.def_293 (and .def_287 .def_292)))
(let ((.def_276 (* b.speed_y__AT1 .def_275)))
(let ((.def_277 (* 98.0 b.y__AT1)))
(let ((.def_279 (+ .def_277 .def_276)))
(let ((.def_282 (<= .def_279 0.0 )))
(let ((.def_283 (not .def_282)))
(let ((.def_294 (or .def_283 .def_293)))
(let ((.def_298 (or .def_294 .def_297)))
(let ((.def_303 (and .def_298 .def_302)))
(let ((.def_280 (<= 0.0 .def_279)))
(let ((.def_281 (not .def_280)))
(let ((.def_304 (or .def_281 .def_303)))
(let ((.def_263 (not .def_262)))
(let ((.def_274 (or .def_263 .def_273)))
(let ((.def_305 (and .def_274 .def_304)))
(let ((.def_306 (or .def_260 .def_305)))
(let ((.def_254 (and .def_56 .def_253)))
(let ((.def_251 (or .def_248 .def_250)))
(let ((.def_241 (or .def_128 .def_140)))
(let ((.def_245 (or b.counter.3__AT1 .def_241)))
(let ((.def_242 (or b.counter.2__AT1 .def_241)))
(let ((.def_240 (or .def_135 .def_140)))
(let ((.def_243 (and .def_240 .def_242)))
(let ((.def_244 (or .def_150 .def_243)))
(let ((.def_246 (and .def_244 .def_245)))
(let ((.def_252 (and .def_246 .def_251)))
(let ((.def_255 (and .def_252 .def_254)))
(let ((.def_65 (<= 0.0 b.delta__AT0)))
(let ((.def_46 (not b.EVENT.0__AT0)))
(let ((.def_44 (not b.EVENT.1__AT0)))
(let ((.def_62 (and .def_44 .def_46)))
(let ((.def_63 (not .def_62)))
(let ((.def_236 (or .def_63 .def_65)))
(let ((.def_237 (or b.EVENT.1__AT0 .def_236)))
(let ((.def_172 (= b.counter.0__AT0 b.counter.0__AT1)))
(let ((.def_170 (= b.counter.1__AT0 b.counter.1__AT1)))
(let ((.def_168 (= b.counter.2__AT0 b.counter.2__AT1)))
(let ((.def_167 (= b.counter.3__AT0 b.counter.3__AT1)))
(let ((.def_169 (and .def_167 .def_168)))
(let ((.def_171 (and .def_169 .def_170)))
(let ((.def_173 (and .def_171 .def_172)))
(let ((.def_233 (or .def_63 .def_173)))
(let ((.def_234 (or b.EVENT.1__AT0 .def_233)))
(let ((.def_225 (* (- 5.0) b.speed_y__AT1)))
(let ((.def_92 (* (- 49.0) b.delta__AT0)))
(let ((.def_226 (+ .def_92 .def_225)))
(let ((.def_81 (* 5.0 b.speed_y__AT0)))
(let ((.def_227 (+ .def_81 .def_226)))
(let ((.def_228 (= .def_227 0.0 )))
(let ((.def_214 (* b.speed_y__AT0 b.delta__AT0)))
(let ((.def_215 (* 10.0 .def_214)))
(let ((.def_212 (* b.delta__AT0 b.delta__AT0)))
(let ((.def_213 (* (- 49.0) .def_212)))
(let ((.def_216 (+ .def_213 .def_215)))
(let ((.def_218 (* (- 10.0) b.y__AT1)))
(let ((.def_221 (+ .def_218 .def_216)))
(let ((.def_75 (* 10.0 b.y__AT0)))
(let ((.def_222 (+ .def_75 .def_221)))
(let ((.def_223 (= .def_222 0.0 )))
(let ((.def_229 (and .def_223 .def_228)))
(let ((.def_230 (or .def_63 .def_229)))
(let ((.def_178 (= b.y__AT0 b.y__AT1)))
(let ((.def_166 (= b.speed_y__AT0 b.speed_y__AT1)))
(let ((.def_209 (and .def_166 .def_178)))
(let ((.def_206 (= b.delta__AT0 0.0 )))
(let ((.def_207 (and .def_62 .def_206)))
(let ((.def_208 (not .def_207)))
(let ((.def_210 (or .def_208 .def_209)))
(let ((.def_211 (or b.EVENT.1__AT0 .def_210)))
(let ((.def_231 (and .def_211 .def_230)))
(let ((.def_188 (= b.time__AT0 b.time__AT1)))
(let ((.def_200 (and .def_178 .def_188)))
(let ((.def_201 (and .def_166 .def_200)))
(let ((.def_202 (and .def_173 .def_201)))
(let ((.def_203 (or .def_44 .def_202)))
(let ((.def_191 (* (- 1.0) b.time__AT1)))
(let ((.def_194 (+ b.delta__AT0 .def_191)))
(let ((.def_195 (+ b.time__AT0 .def_194)))
(let ((.def_196 (= .def_195 0.0 )))
(let ((.def_197 (or .def_63 .def_196)))
(let ((.def_198 (or b.EVENT.1__AT0 .def_197)))
(let ((.def_189 (or .def_62 .def_188)))
(let ((.def_190 (or b.EVENT.1__AT0 .def_189)))
(let ((.def_199 (and .def_190 .def_198)))
(let ((.def_204 (and .def_199 .def_203)))
(let ((.def_184 (= .def_63 b.event_is_timed__AT1)))
(let ((.def_182 (= b.event_is_timed__AT0 .def_62)))
(let ((.def_185 (and .def_182 .def_184)))
(let ((.def_174 (and .def_166 .def_173)))
(let ((.def_117 (<= 0.0 b.speed_y__AT0)))
(let ((.def_118 (not .def_117)))
(let ((.def_116 (= b.y__AT0 0.0 )))
(let ((.def_119 (and .def_116 .def_118)))
(let ((.def_175 (or .def_119 .def_174)))
(let ((.def_141 (or b.counter.0__AT0 .def_140)))
(let ((.def_27 (not b.counter.0__AT0)))
(let ((.def_139 (or .def_27 b.counter.0__AT1)))
(let ((.def_142 (and .def_139 .def_141)))
(let ((.def_143 (and .def_128 .def_142)))
(let ((.def_144 (or b.counter.1__AT0 .def_143)))
(let ((.def_25 (not b.counter.1__AT0)))
(let ((.def_138 (or .def_25 b.counter.1__AT1)))
(let ((.def_145 (and .def_138 .def_144)))
(let ((.def_158 (and .def_135 .def_145)))
(let ((.def_159 (or b.counter.2__AT0 .def_158)))
(let ((.def_153 (and .def_27 .def_128)))
(let ((.def_154 (or b.counter.1__AT0 .def_153)))
(let ((.def_155 (and .def_138 .def_154)))
(let ((.def_156 (and b.counter.2__AT1 .def_155)))
(let ((.def_30 (not b.counter.2__AT0)))
(let ((.def_157 (or .def_30 .def_156)))
(let ((.def_160 (and .def_157 .def_159)))
(let ((.def_161 (and b.counter.3__AT1 .def_160)))
(let ((.def_162 (or b.counter.3__AT0 .def_161)))
(let ((.def_146 (and b.counter.2__AT1 .def_145)))
(let ((.def_147 (or b.counter.2__AT0 .def_146)))
(let ((.def_132 (or b.counter.1__AT0 b.counter.1__AT1)))
(let ((.def_130 (and .def_128 b.counter.0__AT1)))
(let ((.def_131 (or .def_25 .def_130)))
(let ((.def_133 (and .def_131 .def_132)))
(let ((.def_136 (and .def_133 .def_135)))
(let ((.def_137 (or .def_30 .def_136)))
(let ((.def_148 (and .def_137 .def_147)))
(let ((.def_151 (and .def_148 .def_150)))
(let ((.def_33 (not b.counter.3__AT0)))
(let ((.def_152 (or .def_33 .def_151)))
(let ((.def_163 (and .def_152 .def_162)))
(let ((.def_121 (* (- 1.0) b.speed_y__AT0)))
(let ((.def_124 (* .def_121 .def_123)))
(let ((.def_126 (= .def_124 b.speed_y__AT1)))
(let ((.def_164 (and .def_126 .def_163)))
(let ((.def_120 (not .def_119)))
(let ((.def_165 (or .def_120 .def_164)))
(let ((.def_176 (and .def_165 .def_175)))
(let ((.def_179 (and .def_176 .def_178)))
(let ((.def_180 (or .def_62 .def_179)))
(let ((.def_181 (or b.EVENT.1__AT0 .def_180)))
(let ((.def_186 (and .def_181 .def_185)))
(let ((.def_205 (and .def_186 .def_204)))
(let ((.def_232 (and .def_205 .def_231)))
(let ((.def_235 (and .def_232 .def_234)))
(let ((.def_238 (and .def_235 .def_237)))
(let ((.def_239 (and .def_44 .def_238)))
(let ((.def_256 (and .def_239 .def_255)))
(let ((.def_28 (and .def_25 .def_27)))
(let ((.def_31 (and .def_28 .def_30)))
(let ((.def_257 (and .def_31 .def_256)))
(let ((.def_70 (* 49.0 b.delta__AT0)))
(let ((.def_71 (* b.delta__AT0 .def_70)))
(let ((.def_73 (* (- 1.0) .def_71)))
(let ((.def_67 (* 10.0 b.speed_y__AT0)))
(let ((.def_68 (* b.delta__AT0 .def_67)))
(let ((.def_74 (+ .def_68 .def_73)))
(let ((.def_77 (+ .def_75 .def_74)))
(let ((.def_78 (<= 0.0 .def_77)))
(let ((.def_108 (not .def_78)))
(let ((.def_93 (+ .def_81 .def_92)))
(let ((.def_94 (<= 0.0 .def_93)))
(let ((.def_109 (and .def_94 .def_108)))
(let ((.def_104 (<= b.speed_y__AT0 0.0 )))
(let ((.def_57 (<= 0.0 b.y__AT0)))
(let ((.def_107 (or .def_57 .def_104)))
(let ((.def_110 (or .def_107 .def_109)))
(let ((.def_103 (<= b.y__AT0 0.0 )))
(let ((.def_105 (and .def_103 .def_104)))
(let ((.def_98 (<= .def_93 0.0 )))
(let ((.def_99 (not .def_98)))
(let ((.def_96 (= .def_77 0.0 )))
(let ((.def_97 (not .def_96)))
(let ((.def_100 (or .def_97 .def_99)))
(let ((.def_95 (or .def_78 .def_94)))
(let ((.def_101 (and .def_95 .def_100)))
(let ((.def_82 (* b.speed_y__AT0 .def_81)))
(let ((.def_84 (* 98.0 b.y__AT0)))
(let ((.def_86 (+ .def_84 .def_82)))
(let ((.def_89 (<= .def_86 0.0 )))
(let ((.def_90 (not .def_89)))
(let ((.def_102 (or .def_90 .def_101)))
(let ((.def_106 (or .def_102 .def_105)))
(let ((.def_111 (and .def_106 .def_110)))
(let ((.def_87 (<= 0.0 .def_86)))
(let ((.def_88 (not .def_87)))
(let ((.def_112 (or .def_88 .def_111)))
(let ((.def_66 (not .def_65)))
(let ((.def_79 (or .def_66 .def_78)))
(let ((.def_113 (and .def_79 .def_112)))
(let ((.def_114 (or .def_63 .def_113)))
(let ((.def_58 (and .def_56 .def_57)))
(let ((.def_47 (or .def_44 .def_46)))
(let ((.def_37 (or .def_25 .def_27)))
(let ((.def_41 (or b.counter.3__AT0 .def_37)))
(let ((.def_38 (or b.counter.2__AT0 .def_37)))
(let ((.def_36 (or .def_27 .def_30)))
(let ((.def_39 (and .def_36 .def_38)))
(let ((.def_40 (or .def_33 .def_39)))
(let ((.def_42 (and .def_40 .def_41)))
(let ((.def_48 (and .def_42 .def_47)))
(let ((.def_59 (and .def_48 .def_58)))
(let ((.def_34 (and .def_31 .def_33)))
(let ((.def_22 (= b.speed_y__AT0 0.0 )))
(let ((.def_19 (= b.y__AT0 10.0 )))
(let ((.def_14 (= b.time__AT0 0.0 )))
(let ((.def_16 (and .def_14 b.event_is_timed__AT0)))
(let ((.def_20 (and .def_16 .def_19)))
(let ((.def_23 (and .def_20 .def_22)))
(let ((.def_35 (and .def_23 .def_34)))
(let ((.def_60 (and .def_35 .def_59)))
(let ((.def_7 (and .def_4 .def_6)))
(let ((.def_10 (and .def_7 .def_9)))
(let ((.def_11 (not .def_10)))
(let ((.def_61 (and .def_11 .def_60)))
(let ((.def_115 (and .def_61 .def_114)))
(let ((.def_258 (and .def_115 .def_257)))
(let ((.def_307 (and .def_258 .def_306)))
(let ((.def_448 (and .def_307 .def_447)))
(let ((.def_497 (and .def_448 .def_496)))
(let ((.def_632 (and .def_497 .def_631)))
(let ((.def_681 (and .def_632 .def_680)))
.def_681))))))))))))))))))))))))))))))))))))))))))))))))))))))))))))))))))))))))))))))))))))))))))))))))))))))))))))))))))))))))))))))))))))))))))))))))))))))))))))))))))))))))))))))))))))))))))))))))))))))))))))))))))))))))))))))))))))))))))))))))))))))))))))))))))))))))))))))))))))))))))))))))))))))))))))))))))))))))))))))))))))))))))))))))))))))))))))))))))))))))))))))))))))))))))))))))))))))))))))))))))))))))))))))))))))))))))))))))))))))))))))))))))))))))))))))))))))))))))))))))))))))))))))))))))))))))))))))))))))))))))))))))))))))))))))))))))))))))))))))))))))))))))))))))))))))))))))))))))))))))))
(check-sat)
(exit)
